; benchmark generated from python API
(set-info :status unknown)
(declare-fun L_1 () Real)
(declare-fun S_2 () Real)
(declare-fun C () Real)
(declare-fun A_1 () Real)
(declare-fun L_0 () Real)
(declare-fun A_0 () Real)
(declare-fun L_2 () Real)
(declare-fun A_2 () Real)
(declare-fun S_4 () Real)
(declare-fun A_3 () Real)
(declare-fun L_3 () Real)
(declare-fun S_1 () Real)
(declare-fun S_0 () Real)
(declare-fun L_4 () Real)
(declare-fun A_4 () Real)
(declare-fun B () Real)
(declare-fun S_3 () Real)
(assert
 (let (($x34 (>= L_0 0.0)))
 (let (($x634 (>= C 5.0)))
 (let (($x785 (>= B 5.0)))
 (let (($x51 (= L_1 L_0)))
 (let (($x16908 (or $x51 (<= (+ S_4 (* (- 1.0) A_1) (* (- 3.0) C) L_1 B) 0.0))))
 (let ((?x225 (* (- 1.0) B)))
 (let ((?x285 (* (- 1.0) L_4)))
 (let ((?x292 (* (- 1.0) C)))
 (let ((?x366 (* (- 1.0) A_3)))
 (let (($x9471 (<= 0.0 (+ L_3 ?x366 A_4 ?x292 ?x285 ?x225))))
 (let (($x1870 (= (+ (* (- 1.0) L_3) A_3 (* (- 1.0) A_4) C L_4 B) 0.0)))
 (let (($x1999 (<= (+ A_1 (* (- 1.0) S_2) (* (- 1.0) L_1)) 0.0)))
 (let (($x9478 (<= 0.0 (+ (* (- 1.0) A_1) C S_0 L_1))))
 (let (($x9479 (not $x9478)))
 (let ((?x234 (* (- 1.0) L_1)))
 (let ((?x363 (* (- 1.0) A_2)))
 (let ((?x1104 (+ ?x363 L_2 A_1 C ?x234)))
 (let (($x8624 (<= 0.0 ?x1104)))
 (let (($x8977 (not $x8624)))
 (let ((?x251 (* (- 1.0) L_2)))
 (let ((?x1384 (+ L_3 ?x366 A_2 ?x251 C)))
 (let (($x421 (<= 0.0 ?x1384)))
 (let (($x419 (not $x421)))
 (let (($x81 (= L_4 L_3)))
 (let (($x2022 (<= (+ (* (- 1.0) L_3) A_3 (* (- 1.0) A_1) (* (- 2.0) C) L_1) 0.0)))
 (let (($x2001 (not $x2022)))
 (let (($x9475 (<= 0.0 (+ A_4 (* (- 1.0) A_1) (* (- 3.0) C) L_1 ?x285 ?x225))))
 (let (($x9464 (<= 0.0 (+ ?x363 L_2 A_4 (* (- 2.0) C) ?x285 ?x225))))
 (let (($x9529 (or $x81 $x9471 $x9464 (<= (+ (* (- 1.0) A_4) (* 3.0 C) S_1 L_4 B) 0.0))))
 (let (($x4925 (<= (+ A_4 (* (- 1.0) A_0) (* (- 4.0) C) ?x285 ?x225 L_0) 0.0)))
 (let (($x9525 (or $x81 $x9471 (<= (+ (* (- 1.0) A_4) (* 2.0 C) S_2 L_4 B) 0.0))))
 (let (($x9480 (or $x81 $x9478 $x9471 $x9464 (<= (+ (* (- 1.0) A_4) (* 4.0 C) S_0 L_4 B) 0.0))))
 (let (($x17075 (or (= (+ (* (- 1.0) A_4) A_1 ?x234 (* 3.0 C) L_4 B) 0.0) (not $x9475))))
 (let (($x3405 (= (+ A_2 ?x251 (* (- 1.0) A_4) (* 2.0 C) L_4 B) 0.0)))
 (let (($x449 (<= 0.0 (+ ?x363 L_2 A_1 C ?x234 ?x225))))
 (let (($x447 (not $x449)))
 (let (($x17520 (or $x81 $x449 $x1870 (not (<= 0.0 (+ L_3 ?x366 A_1 (* 2.0 C) ?x234 ?x225))))))
 (let (($x9348 (<= 0.0 (+ L_3 ?x366 A_1 (* 2.0 C) ?x234 ?x225))))
 (let (($x9181 (<= 0.0 (+ (* (- 1.0) A_4) A_1 ?x234 (* 3.0 C) L_4))))
 (let (($x17105 (or $x81 $x449 (= (+ (* (- 1.0) A_4) A_1 (* 3.0 C) ?x234 L_4) 0.0) (not $x9181) $x9348)))
 (let (($x17378 (or $x51 (<= (+ S_3 (* (- 1.0) A_1) (* (- 2.0) C) L_1 B) 0.0))))
 (let (($x17384 (or (= (+ L_3 ?x366 A_2 ?x251 C B) 0.0) (not (<= 0.0 (+ (* (- 1.0) L_3) A_3 ?x363 L_2 ?x292 ?x225))))))
 (let (($x3052 (<= (+ (* (- 1.0) L_3) A_3 (* (- 4.0) C) (* (- 1.0) S_0) ?x225) 0.0)))
 (let ((?x955 (* (- 2.0) C)))
 (let ((?x361 (* (- 1.0) A_1)))
 (let ((?x268 (* (- 1.0) L_3)))
 (let (($x9237 (<= 0.0 (+ ?x268 A_3 ?x361 ?x955 L_1 ?x225))))
 (let (($x16739 (or (= (+ L_3 ?x366 A_1 ?x234 (* 2.0 C) B) 0.0) (not $x9237))))
 (let (($x9220 (<= 0.0 (+ ?x268 A_3 ?x363 L_2 ?x292 ?x225))))
 (let (($x71 (= L_3 L_2)))
 (let (($x9299 (or $x71 (<= (+ L_3 ?x366 (* 3.0 C) S_0 B) 0.0) $x9220 $x9237)))
 (let (($x3080 (<= (+ ?x268 A_3 (* (- 1.0) A_0) (* (- 3.0) C) ?x225 L_0) 0.0)))
 (let (($x1101 (= (+ L_3 ?x366 A_1 (* 2.0 C) ?x234) 0.0)))
 (let (($x16804 (or $x81 (= (+ ?x268 A_3 (* (- 1.0) A_4) C L_4) 0.0) (not (<= 0.0 (+ ?x268 A_3 (* (- 1.0) A_4) C L_4))))))
 (let (($x8340 (<= 0.0 (+ L_3 ?x366 A_2 ?x251 C ?x225))))
 (let (($x17099 (or $x81 (not (<= (+ ?x363 L_2 A_4 ?x285 ?x955) 0.0)) (= (+ A_2 ?x251 (* (- 1.0) A_4) (* 2.0 C) L_4) 0.0) $x8340)))
 (let (($x1447 (not $x51)))
 (let (($x61 (= L_2 L_1)))
 (let (($x17496 (or $x61 $x1447 (<= (+ ?x363 L_2 A_1 C (* (- 1.0) L_0)) 0.0))))
 (let (($x16806 (or (= (+ ?x363 L_2 A_1 C ?x234 B) 0.0) (not (<= 0.0 (+ A_2 ?x251 ?x361 ?x292 L_1 ?x225))))))
 (let (($x8849 (<= 0.0 (+ A_2 ?x251 ?x361 ?x292 L_1 ?x225))))
 (let (($x965 (<= (+ A_1 (* (- 1.0) S_2) ?x234 ?x225) 0.0)))
 (let (($x108 (>= S_1 S_0)))
 (let (($x111 (>= S_2 S_1)))
 (let (($x119 (>= A_1 A_0)))
 (let (($x120 (>= A_2 A_1)))
 (and (<= (+ A_3 ?x268) S_4) (<= (+ A_2 ?x251) S_3) (not (<= (+ A_3 ?x268) S_3)) $x120 $x119 $x111 $x108 (or $x51 (not (<= 0.0 (+ ?x234 L_0)))) (or $x51 (<= (+ ?x361 S_1 L_1 B) 0.0)) (or $x61 $x421) $x965 (or $x61 (<= (+ ?x363 L_2 C S_1 B) 0.0)) (<= (+ A_2 ?x251 ?x292 (* (- 1.0) S_2) ?x225) 0.0) (or $x61 (<= (+ ?x363 L_2 (* 2.0 C) S_0 B) 0.0) $x8849) (<= (+ A_2 ?x251 (* (- 1.0) A_0) ?x955 ?x225 L_0) 0.0) (<= (+ (* (- 1.0) A_0) ?x292 S_1 L_0) 0.0) $x16806 (<= (+ A_1 (* (- 1.0) A_0) ?x292 ?x234 ?x225 L_0) 0.0) $x17496 (or $x71 (not $x8340)) (or $x81 $x1870 (not $x8340)) (<= (+ A_1 ?x292 (* (- 1.0) S_1) ?x234 ?x225) 0.0) (or $x61 (= ?x1104 0.0) $x8977) (or $x51 $x8624) (or $x61 (not (<= 0.0 (+ ?x251 L_1)))) (<= (+ A_2 ?x251 (* (- 3.0) C) (* (- 1.0) S_0) ?x225) 0.0) (<= (+ A_2 ?x251 ?x955 (* (- 1.0) S_1) ?x225) 0.0) (or $x61 (<= (+ ?x363 L_2 S_2 B) 0.0)) (or $x61 (<= (+ ?x363 L_2 A_4 ?x285 ?x955) 0.0)) (or $x71 $x419 (= ?x1384 0.0)) (or $x61 (<= (+ ?x363 L_2 S_3 ?x292 B) 0.0)) $x17099 (or $x61 (<= (+ S_4 ?x363 L_2 ?x955 B) 0.0)) (or $x51 (<= (+ ?x361 C S_0 L_1 B) 0.0)) (<= (+ ?x955 S_1 (* (- 1.0) S_0)) 0.0) (or $x71 (<= (+ L_3 ?x366 S_3 B) 0.0)) $x16804 (or $x71 (<= 0.0 (+ ?x268 A_3 (* (- 1.0) A_4) C L_4))) (or $x71 (<= (+ L_3 ?x366 C S_2 B) 0.0)) (or $x51 $x2022) (or $x71 $x449 $x1101 $x2001) (or $x71 $x1101 $x2001 $x9220) (or $x71 (not (<= 0.0 (+ ?x268 L_2)))) (<= (+ A_1 ?x955 (* (- 1.0) S_0) ?x234 ?x225) 0.0) (or $x51 (<= (+ ?x361 ?x292 S_2 L_1 B) 0.0)) $x3080 (or $x71 $x9220 (<= (+ L_3 ?x366 (* 2.0 C) S_1 B) 0.0)) $x9299 (<= (+ ?x268 A_3 (* (- 3.0) C) (* (- 1.0) S_1) ?x225) 0.0) (or $x71 (<= (+ L_3 ?x366 S_4 ?x292 B) 0.0)) (<= (+ ?x268 A_3 ?x955 (* (- 1.0) S_2) ?x225) 0.0) $x16739 $x3052 $x17384 (<= (+ S_4 ?x363 L_2 ?x955) 0.0) (or $x81 $x421 $x447 $x3405) (or (not $x81) (<= 0.0 (+ A_3 (* (- 1.0) A_4) C B))) $x17378 (or $x51 $x9181) $x17105 $x17520 (or $x81 $x419 $x447 $x1870) (<= (+ ?x363 L_2 S_3 ?x292) 0.0) (or $x3405 (not $x9464)) (or $x81 (not (<= 0.0 (+ L_3 ?x285)))) $x17075 (or $x81 (<= (+ S_3 (* (- 1.0) A_4) C L_4 B) 0.0)) $x9480 (or $x81 (<= (+ S_4 (* (- 1.0) A_4) L_4 B) 0.0)) (<= (+ A_4 (* (- 3.0) C) (* (- 1.0) S_2) ?x285 ?x225) 0.0) (<= (+ A_4 (* (- 5.0) C) (* (- 1.0) S_0) ?x285 ?x225) 0.0) $x9525 $x4925 $x9529 (or $x81 $x421 $x8977 $x9464 $x9479) (or $x81 $x2022 $x8624 $x9475 $x9479) (or $x81 $x2001 $x8624 $x9471 $x9479) (or $x81 $x419 $x8977 $x9471 $x9479) (<= (+ A_4 (* (- 4.0) C) (* (- 1.0) S_1) ?x285 ?x225) 0.0) (or $x1999 (<= (+ C (* (- 1.0) S_2) S_0) 0.0)) (or $x1870 (not $x9471)) $x16908 (<= (+ (* (- 3.0) C) S_2 (* (- 1.0) S_0)) 0.0) (<= (+ ?x955 S_2 (* (- 1.0) S_1)) 0.0) (<= (+ S_3 ?x361 L_1 ?x955) 0.0) (<= (+ S_3 ?x955 (* (- 1.0) S_2)) 0.0) (<= (+ S_4 (* (- 3.0) C) (* (- 1.0) S_2)) 0.0) (<= (+ S_3 (* (- 1.0) A_0) (* (- 3.0) C) L_0) 0.0) (<= (+ S_4 (* (- 5.0) C) (* (- 1.0) S_0)) 0.0) (<= (+ S_3 (* (- 4.0) C) (* (- 1.0) S_0)) 0.0) (<= (+ S_3 (* (- 3.0) C) (* (- 1.0) S_1)) 0.0) (<= (+ S_4 (* (- 1.0) A_0) (* (- 4.0) C) L_0) 0.0) (<= (+ S_4 ?x361 L_1 (* (- 3.0) C)) 0.0) (<= (+ S_4 (* (- 4.0) C) (* (- 1.0) S_1)) 0.0) $x785 $x634 $x34 (<= (+ S_4 (* (- 1.0) A_4) L_4) 0.0) (<= (+ (* (- 1.0) A_0) S_0 L_0) 0.0) (<= (+ ?x361 L_1 S_1) 0.0) (<= (+ L_3 ?x366 S_4 ?x292) 0.0) (<= (+ ?x363 L_2 S_2) 0.0) (<= (+ (* (- 1.0) A_0) ?x955 S_2 L_0) 0.0) (<= (+ ?x361 ?x292 S_2 L_1) 0.0)))))))))))))))))))))))))))))))))))))))))))))))))))))))))))))))))))))
(check-sat)
